644,169
727,110
1041,406
1214,322
945,42
681,-104
611,-38
573,193
644,169
584,336
695,318
584,336
602,909
385,702
657,423
1041,406
972,195
745,605
602,909
657,423
695,318
710,410
702,427
548,474
207,481
227,637
874,672
795,369
830,112
858,59
782,93
727,110
681,-14
945,42
972,195
947,364
795,369
762,566
745,605
733,478
751,309
708,459
